50
75 75
1 60 768
2 58 663
3 58 634
4 57 355
5 56 366
6 55 344
7 53 129
8 53 528
9 51 56
10 51 356
11 49 135
12 45 408
13 44 252
14 43 154
15 42 989
16 40 762
17 39 639
18 39 589
19 38 999
20 37 159
21 37 535
22 37 999
23 34 990
24 31 277
25 30 327
26 30 65
27 29 585
28 28 916
29 27 640
30 25 238
31 25 519
32 22 445
33 21 232
34 20 513
35 18 780
36 18 604
37 17 609
38 16 431
39 13 947
40 13 368
41 12 688
42 12 239
43 11 495
44 9 357
45 9 224
46 8 775
47 8 475
48 8 542
49 7 174
50 7 985
